S, Mises

(Avg: 75%) e
+4.811e+07 y 3
+4.410e+07 p 1
+4.010e+07 P
+3.610e+07 & 4
+3.210e+07 | g :
+2.810e+07 I N
+2.409e+07 | | u T
+2.009e+07 i ]
+1.609e+07 A P
+1.209e+07 | | . Y
+8.086e+06 2 3
+4.034e+06 | | - Â¥
+8.148e+04 2 3
