S, Mises !
(Avg: 75%) e
+1.203e+07 - R
+1.103e+07
+1.003e+07 {
+9.027e+06 / p— .
+8.026e+06 b
+7.025¢+06 :
+6.025e+06 | 3 p
+5.024e+06 g ,
+4.023e+06 3 | b
+3.023e+06 ¢ 5
+2.022e+06 b
+1.021e+06 i )
+2.037e+04 .
