S, Mises
(Avg: 75%)
+2.365e+07
+2.168e+07
+1.972e+07
+1.775e+07 [
+1.579e+07
+1.382e+07 p
+1.186e+07 L
+9.894e+06 |
+7.929e+06
+5.964e+06
+3.999e+06
+2.034e+06
+6.951e+04
