S, Mises

(Avg: 75%)
+2.428e+07
+2.226e+07
+2.024e+07
+1.823e+07
+1.621e+07
+1.420e407 /
+1.218e+07
+1.016e+07
+8.146e+06
+6.130e+06
+4.113e+06
+2.097e+06
