S, Mises . \
(Avg: 75%) .
+6.015+06
+5.514e+06 i
+5.014e+06 L -
+4.514e+06 s i : '
+4.013e+06 o A
+3.513e+06 Bk - ;
+3.012e+06 || e )
+2.512e+06 2 |
+1.511e+ =
+1.011e+06 | \\\ ]
+5.106e+05 B B
+1.018e+04 A ol
