S, Mises

(Avg: 75%)
+2.616e+07
+2.399e+07
+2.181e+07 g )
+1.964e+07 e
+1.746e+07 _
+1.529e+07
+1.312e+07 -
+1.094e+07 SN
+8.767e+06 -
+6.593e+06
+4.418e+06 |
+2.244e+06
+6.926e+04
