S, Mises | (-
(Avg: 75%)

+3.399e+07

+3.116e+07

+2.834e+07

+2.552e+07

+2.270e+07

+1.987e+07

+1.705e+07

+1.423e+07

+1.140e+07

+8.581e+06

+5.759e+06 -

+2.936e+06

+1.128e+05

VS
